917436
20 32 24202
32 5 3290
5 26 32088
26 33 15458
33 12 3967
12 34 39715
34 25 30137
25 23 11530
23 38 7449
38 29 745
29 7 22890
7 36 11794
36 6 22446
6 9 47658
9 17 102410
17 14 42391
14 3 30026
3 16 71701
16 15 36816
15 8 26227
8 35 20127
35 11 5412
11 1 8732
1 21 6578
21 10 5744
10 2 10593
2 27 15288
27 18 12606
18 40 18404
40 19 13572
19 4 26533
4 24 52566
24 22 45980
22 13 39393
13 28 6411
28 31 12751
31 39 9087
39 37 6534
37 30 941
30 20 17244
